
--- Job MTSP_gams.gms Start 11/29/23 16:38:45 45.2.0 e4d2ee31 WEX-WEI x86 64bit/MS Windows
--- Applying:
    C:\GAMS\45\gmsprmNT.txt
--- GAMS Parameters defined
    Input C:\Users\kasha\OneDrive\Desktop\project\MTSP\MTSP_mathematicalP\MTSP_gams.gms
    PageSize 0
    ScrDir C:\Users\kasha\OneDrive\Desktop\project\MTSP\MTSP_mathematicalP\225a\
    SysDir C:\GAMS\45\
    LogOption 3
    ErrMsg 1
    ErrorLog 99
    IDE 1
    LstTitleLeftAligned 1
Licensee: GAMS Demo, for EULA and demo limitations see   G230930/0001CB-GEN
          https://www.gams.com/latest/docs/UG%5FLicense.html         DC0000
          C:\GAMS\45\gamslice.txt
          Demo license for demonstration and instructional purposes only
Processor information: 1 socket(s), 4 core(s), and 8 thread(s) available
GAMS 45.2.0   Copyright (C) 1987-2023 GAMS Development. All rights reserved
--- Starting compilation
--- MTSP_gams.gms(108) 3 Mb
--- Starting execution: elapsed 0:00:00.009
--- MTSP_gams.gms(105) 4 Mb
--- Generating MIP model mtsp
--- MTSP_gams.gms(108) 4 Mb
---   815 rows  841 columns  4,705 non-zeroes
---   812 discrete-columns
--- Range statistics (absolute non-zero finite values)
--- RHS       [min, max] : [ 1.000E+00, 2.800E+01] - Zero values observed as well
--- Bound     [min, max] : [ 1.000E+00, 1.000E+00] - Zero values observed as well
--- Matrix    [min, max] : [ 1.000E+00, 3.860E+02]
--- Executing CPLEX (Solvelink=2): elapsed 0:00:00.027

IBM ILOG CPLEX   45.2.0 e4d2ee31 Oct 30, 2023          WEI x86 64bit/MS Window

*** This solver runs with a demo license. No commercial use.
--- GMO setup time: 0.00s
--- Space for names approximately 0.03 Mb
--- Use option 'names no' to turn use of names off
--- GMO memory 0.69 Mb (peak 0.70 Mb)
--- Dictionary memory 0.00 Mb
--- Cplex 22.1.1.0 link memory 0.03 Mb (peak 0.12 Mb)
--- Starting Cplex

Version identifier: 22.1.1.0 | 2022-11-27 | 9160aff4d
CPXPARAM_Advance                                 0
CPXPARAM_Threads                                 1
CPXPARAM_MIP_Display                             4
CPXPARAM_MIP_Pool_Capacity                       0
CPXPARAM_Simplex_Limits_Iterations               10000000
CPXPARAM_MIP_Tolerances_AbsMIPGap                0
CPXPARAM_MIP_Tolerances_MIPGap                   0
Generic callback                                 0x50
Tried aggregator 1 time.
MIP Presolve eliminated 0 rows and 1 columns.
Reduced MIP has 814 rows, 840 columns, and 3892 nonzeros.
Reduced MIP has 812 binaries, 0 generals, 0 SOSs, and 0 indicators.
Presolve time = 0.00 sec. (2.11 ticks)
Probing time = 0.00 sec. (2.53 ticks)
Tried aggregator 1 time.
Detecting symmetries...
Reduced MIP has 814 rows, 840 columns, and 3892 nonzeros.
Reduced MIP has 812 binaries, 0 generals, 0 SOSs, and 0 indicators.
Presolve time = 0.02 sec. (2.84 ticks)
Probing time = 0.00 sec. (2.53 ticks)
Clique table members: 436.
MIP emphasis: balance optimality and feasibility.
MIP search method: dynamic search.
Parallel mode: none, using 1 thread.
Tried aggregator 1 time.
No LP presolve or aggregator reductions.
Presolve time = 0.00 sec. (0.42 ticks)
Initializing dual steep norms . . .

Iteration log . . .
Iteration:     1   Dual objective     =           109.000000
Iteration:    76   Dual objective     =          1444.896552
Root relaxation solution time = 0.00 sec. (1.78 ticks)

        Nodes                                         Cuts/
   Node  Left     Objective  IInf  Best Integer    Best Bound    ItCnt     Gap

      0     0     1445.7586    53                   1445.7586       95         
      0     0     1526.5000    54                    Cuts: 98      135         
      0     0     1541.5690    54                    Cuts: 43      167         
      0     0     1557.0000    53                    Cuts: 52      187         
      0     0     1565.0000    56                    Cuts: 80      198         
      0     0     1565.0739    55                    Cuts: 22      212         
Detecting symmetries...
      0     0     1574.8571    57                    Cuts: 14      231         
      0     0     1584.5000    50                    Cuts: 38      263         
      0     0     1584.5000    61                    Cuts: 33      272         
*     0+    0                         5180.0000     1584.5000            69.41%
Found incumbent of value 5180.000000 after 0.16 sec. (152.54 ticks)
*     0+    0                         2009.0000     1584.5000            21.13%
Found incumbent of value 2009.000000 after 0.33 sec. (362.50 ticks)
      0     0  -1.00000e+75     0     2009.0000     1584.5000      272   21.13%
Detecting symmetries...
      0     2     1584.5000    61     2009.0000     1584.5000      272   21.13%
Elapsed time = 0.44 sec. (465.09 ticks, tree = 0.01 MB)
*    45    39      integral     0     1802.0000     1585.0000      775   12.04%
Found incumbent of value 1802.000000 after 0.48 sec. (519.97 ticks)
*    98    80      integral     0     1791.0000     1585.0000     1347   11.50%
                                                  Impl Bds: 1                  
Found incumbent of value 1791.000000 after 0.52 sec. (563.66 ticks)
*   146    97      integral     0     1729.0000     1586.5000     1848    8.24%
                                                     Cuts: 10                  
Found incumbent of value 1729.000000 after 0.55 sec. (599.93 ticks)
*   187    61      integral     0     1618.0000     1588.5776     2291    1.82%
                                                      Cuts: 3                  
Found incumbent of value 1618.000000 after 0.58 sec. (630.04 ticks)
    280    98     1595.6983    40     1618.0000     1593.4368     3045    1.52%
                                                     Cuts: 22                  
    565   179     1609.2840    58     1618.0000     1600.6379     6170    1.07%
                                                     Cuts: 52                  
*   765    74      integral     0     1610.0000     1604.6552     8116    0.33%
                                                     Cuts: 20                  
Found incumbent of value 1610.000000 after 1.05 sec. (1106.33 ticks)

Clique cuts applied:  12
Cover cuts applied:  17
Implied bound cuts applied:  61
Flow cuts applied:  32
Mixed integer rounding cuts applied:  33
Zero-half cuts applied:  7
Multi commodity flow cuts applied:  20
Gomory fractional cuts applied:  3

Root node processing (before b&c):
  Real time             =    0.44 sec. (465.08 ticks)
Sequential b&c:
  Real time             =    0.66 sec. (696.00 ticks)
                          ------------
Total (root+branch&cut) =    1.09 sec. (1161.08 ticks)

--- MIP status (101): integer optimal solution.
--- Cplex Time: 1.09sec (det. 1161.08 ticks)

--- Returning a primal only solution to GAMS (marginals all set to NA).
--- Fixing integer variables and solving final LP...

Version identifier: 22.1.1.0 | 2022-11-27 | 9160aff4d
CPXPARAM_Advance                                 2
CPXPARAM_Threads                                 1
CPXPARAM_MIP_Display                             4
CPXPARAM_MIP_Pool_Capacity                       0
CPXPARAM_Simplex_Limits_Iterations               10000000
CPXPARAM_MIP_Tolerances_AbsMIPGap                0
CPXPARAM_MIP_Tolerances_MIPGap                   0
Tried aggregator 1 time.
LP Presolve eliminated 58 rows and 813 columns.
Reduced LP has 756 rows, 28 columns, and 1512 nonzeros.
Presolve time = 0.00 sec. (0.86 ticks)

Iteration log . . .
Iteration:     1   Dual objective     =          1610.000000

--- Fixed MIP status (1): optimal.
--- Cplex Time: 0.01sec (det. 1.98 ticks)


Proven optimal solution
MIP Solution:         1610.000000    (8756 iterations, 854 nodes)
Final Solve:          1610.000000    (27 iterations)

Best possible:        1610.000000
Absolute gap:            0.000000
Relative gap:            0.000000

--- Reading solution for model mtsp
*** Status: Normal completion
--- Job MTSP_gams.gms Stop 11/29/23 16:38:46 elapsed 0:00:01.189
